4 
5  19 31 42 
6  01 09 17 26 36 44 52 59 
7  07 14 22 29 37 44 52 59 
8  07 14 22 29 37 44 52 59 
9  07 14 22 29 36 44 51 59 
10  06 14 21 29 36 44 51 59 
11  06 14 21 29 36 44 51 59 
12  06 14 21 29 36 44 51 59 
13  06 14 21 29 36 44 51 59 
14  06 14 21 29 36 44 51 59 
15  06 14 21 29 36 44 51 59 
16  06 14 21 29 36 44 51 59 
17  06 14 21 29 36 44 51 59 
18  06 14 21 29 36 44 51 59 
19  06 14 21 29 36 44 51 59 
20  06 14 21 29 38 53 
21  08 23 38 53 
22  08 22 37 53 
23  07 19 
0 
